outputs/case_159.model.txt
capital_adequacy_ratio = 40
responsible_person_avg_pay_12m = 1000000
responsible_person_suspended = True
asset_disposal_approved = True
net_worth_ratio_prev2 = 3/2
responsible_person_removed = True
credit_restriction = True
asset_disposed = True
net_worth = -1000000
responsible_person_deregistered = True
responsible_person_reduced_pay = False
improvement_plan_executed = True
disposition_149_3_1_executed = True
branch_restriction_or_closure = True
net_worth_ratio_prev1 = 3/2
improvement_plan_submitted = True
capital_severely_insufficient_measures_ok = True
capital_level = 4
capital_insufficient_measures_ok = True
penalty = False
capital_significantly_insufficient_measures_ok = True
/0 = [else -> 0]